21449.29
87 73 67 28 2 37 65 43 71 19 15 75 14 53 68 24 46 5 29 80 38 91 57 41 50 42 77 16 7 10 0 36 74 30 18 13 89 3 51 93 99 22 17 34 88 31 44 62 25 82 86 54 27 1 45 79 97 49 90 20 63 52 92 95 78 83 32 4 56 58 6 69 61 76 35 84 11 26 9 72 47 40 94 64 66 60 81 96 12 55 98 39 59 33 21 70 23 8 85 48